c status 11 1469385856849
c status 10 1469385856850
s td 7 10 16
b 1 8 6 7 9 14 2
b 2 4 3 6 7 10 16
b 3 3 1 6 11 7 9 10 16 14
b 4 5 13 6 11 9 16
b 5 13 1 6 11 7 9 10 16 14
b 6 12 6 11 10 14 15
b 7 1 6 11 7 9 10 16 14 15 2
1 7
7 3
7 5
7 6
3 2
5 4
